NAME          COPTPROB
OBJSENSE
  MIN
ROWS
 N  __OBJ___
 L  C114    
 L  C116    
 L  C147    
 L  C156    
 L  C193    
COLUMNS
    MARKER    'MARKER'                 'INTORG'
    x38       __OBJ___  440
    x38       C116      -1
    x38       C193      -1
    x97       __OBJ___  810
    x97       C114      -1
    x97       C156      -1
    x245      __OBJ___  342
    x245      C147      -1
    x245      C193      -1
    x282      __OBJ___  765
    x282      C114      -1
    x331      __OBJ___  812
    x331      C114      -1
    x331      C116      -1
    x355      __OBJ___  102
    x355      C147      -1
    x355      C156      -1
    MARKER    'MARKER'                 'INTEND'
RHS
    RHS       __OBJ___  -28608
    RHS       C114      -1
    RHS       C116      -1
    RHS       C147      -1
    RHS       C156      -1
    RHS       C193      -1
BOUNDS
 UP BOUND     x38       1
 UP BOUND     x97       1
 UP BOUND     x245      1
 UP BOUND     x282      1
 UP BOUND     x331      1
 UP BOUND     x355      1
ENDATA
